    1C
    1UUSER                                                              
    1UDATE              02.january.2014                                 
    1UTIME              19:15:02                                        
    1UHOST                                                              
    1UPGM               CalculiX                                        
    1UDIR                                                               
    1UDBN                                                               
    2C                            98                                     1
 -1         1 0.00000E+00 0.00000E+00 0.00000E+00
 -1         2 1.00000E+00 0.00000E+00 0.00000E+00
 -1         3 1.00000E+00 1.00000E+00 0.00000E+00
 -1         4 0.00000E+00 1.00000E+00 0.00000E+00
 -1         5 0.00000E+00 0.00000E+00 1.00000E+00
 -1         6 1.00000E+00 0.00000E+00 1.00000E+00
 -1         7 1.00000E+00 1.00000E+00 1.00000E+00
 -1         8 0.00000E+00 1.00000E+00 1.00000E+00
 -1         9 2.50000E-01 0.00000E+00 0.00000E+00
 -1        10 5.00000E-01 0.00000E+00 0.00000E+00
 -1        11 7.50000E-01 0.00000E+00 0.00000E+00
 -1        12 1.00000E+00 2.50000E-01 0.00000E+00
 -1        13 1.00000E+00 5.00000E-01 0.00000E+00
 -1        14 1.00000E+00 7.50000E-01 0.00000E+00
 -1        15 7.50000E-01 1.00000E+00 0.00000E+00
 -1        16 5.00000E-01 1.00000E+00 0.00000E+00
 -1        17 2.50000E-01 1.00000E+00 0.00000E+00
 -1        18 0.00000E+00 7.50000E-01 0.00000E+00
 -1        19 0.00000E+00 5.00000E-01 0.00000E+00
 -1        20 0.00000E+00 2.50000E-01 0.00000E+00
 -1        21 2.50000E-01 0.00000E+00 1.00000E+00
 -1        22 5.00000E-01 0.00000E+00 1.00000E+00
 -1        23 7.50000E-01 0.00000E+00 1.00000E+00
 -1        24 1.00000E+00 2.50000E-01 1.00000E+00
 -1        25 1.00000E+00 5.00000E-01 1.00000E+00
 -1        26 1.00000E+00 7.50000E-01 1.00000E+00
 -1        27 7.50000E-01 1.00000E+00 1.00000E+00
 -1        28 5.00000E-01 1.00000E+00 1.00000E+00
 -1        29 2.50000E-01 1.00000E+00 1.00000E+00
 -1        30 0.00000E+00 7.50000E-01 1.00000E+00
 -1        31 0.00000E+00 5.00000E-01 1.00000E+00
 -1        32 0.00000E+00 2.50000E-01 1.00000E+00
 -1        33 1.00000E+00 0.00000E+00 2.50000E-01
 -1        34 1.00000E+00 0.00000E+00 5.00000E-01
 -1        35 1.00000E+00 0.00000E+00 7.50000E-01
 -1        36 0.00000E+00 0.00000E+00 7.50000E-01
 -1        37 0.00000E+00 0.00000E+00 5.00000E-01
 -1        38 0.00000E+00 0.00000E+00 2.50000E-01
 -1        39 1.00000E+00 1.00000E+00 2.50000E-01
 -1        40 1.00000E+00 1.00000E+00 5.00000E-01
 -1        41 1.00000E+00 1.00000E+00 7.50000E-01
 -1        42 0.00000E+00 1.00000E+00 2.50000E-01
 -1        43 0.00000E+00 1.00000E+00 5.00000E-01
 -1        44 0.00000E+00 1.00000E+00 7.50000E-01
 -1        45 5.00000E-01 2.50000E-01 0.00000E+00
 -1        46 2.50000E-01 5.00000E-01 0.00000E+00
 -1        47 5.00000E-01 5.00000E-01 0.00000E+00
 -1        48 7.50000E-01 5.00000E-01 0.00000E+00
 -1        49 5.00000E-01 7.50000E-01 0.00000E+00
 -1        50 5.00000E-01 2.50000E-01 1.00000E+00
 -1        51 2.50000E-01 5.00000E-01 1.00000E+00
 -1        52 5.00000E-01 5.00000E-01 1.00000E+00
 -1        53 7.50000E-01 5.00000E-01 1.00000E+00
 -1        54 5.00000E-01 7.50000E-01 1.00000E+00
 -1        55 5.00000E-01 0.00000E+00 2.50000E-01
 -1        56 2.50000E-01 0.00000E+00 5.00000E-01
 -1        57 5.00000E-01 0.00000E+00 5.00000E-01
 -1        58 7.50000E-01 0.00000E+00 5.00000E-01
 -1        59 5.00000E-01 0.00000E+00 7.50000E-01
 -1        60 1.00000E+00 5.00000E-01 2.50000E-01
 -1        61 1.00000E+00 2.50000E-01 5.00000E-01
 -1        62 1.00000E+00 5.00000E-01 5.00000E-01
 -1        63 1.00000E+00 7.50000E-01 5.00000E-01
 -1        64 1.00000E+00 5.00000E-01 7.50000E-01
 -1        65 5.00000E-01 1.00000E+00 2.50000E-01
 -1        66 7.50000E-01 1.00000E+00 5.00000E-01
 -1        67 5.00000E-01 1.00000E+00 5.00000E-01
 -1        68 2.50000E-01 1.00000E+00 5.00000E-01
 -1        69 5.00000E-01 1.00000E+00 7.50000E-01
 -1        70 0.00000E+00 5.00000E-01 2.50000E-01
 -1        71 0.00000E+00 7.50000E-01 5.00000E-01
 -1        72 0.00000E+00 5.00000E-01 5.00000E-01
 -1        73 0.00000E+00 2.50000E-01 5.00000E-01
 -1        74 0.00000E+00 5.00000E-01 7.50000E-01
 -1        75 5.00000E-01 5.00000E-01 2.50000E-01
 -1        76 5.00000E-01 2.50000E-01 5.00000E-01
 -1        77 2.50000E-01 5.00000E-01 5.00000E-01
 -1        78 5.00000E-01 5.00000E-01 5.00000E-01
 -1        79 7.50000E-01 5.00000E-01 5.00000E-01
 -1        80 5.00000E-01 7.50000E-01 5.00000E-01
 -1        81 5.00000E-01 5.00000E-01 7.50000E-01
 -1       156 2.50000E-01 0.00000E+00 5.00000E-01
 -1       157 5.00000E-01 0.00000E+00 5.00000E-01
 -1       158 7.50000E-01 0.00000E+00 5.00000E-01
 -1       161 1.00000E+00 2.50000E-01 5.00000E-01
 -1       162 1.00000E+00 5.00000E-01 5.00000E-01
 -1       163 1.00000E+00 7.50000E-01 5.00000E-01
 -1       166 7.50000E-01 1.00000E+00 5.00000E-01
 -1       167 5.00000E-01 1.00000E+00 5.00000E-01
 -1       168 2.50000E-01 1.00000E+00 5.00000E-01
 -1       171 0.00000E+00 7.50000E-01 5.00000E-01
 -1       172 0.00000E+00 5.00000E-01 5.00000E-01
 -1       173 0.00000E+00 2.50000E-01 5.00000E-01
 -1       176 5.00000E-01 2.50000E-01 5.00000E-01
 -1       177 2.50000E-01 5.00000E-01 5.00000E-01
 -1       178 5.00000E-01 5.00000E-01 5.00000E-01
 -1       179 7.50000E-01 5.00000E-01 5.00000E-01
 -1       180 5.00000E-01 7.50000E-01 5.00000E-01
 -3
    3C                             8                                     1
 -1         1    4    0EL   
 -2         1        10        47        19        37        57        78        72         9        45
 -2        46        20        38        55        75        70        56        76        77        73
 -1         2    4    0EL   
 -2        10         2        13        47        57        34        62        78        11        12
 -2        48        45        55        33        60        75        58        61        79        76
 -1         3    4    0EL   
 -2        19        47        16         4        72        78        67        43        46        49
 -2        17        18        70        75        65        42        77        80        68        71
 -1         4    4    0EL   
 -2        47        13         3        16        78        62        40        67        48        14
 -2        15        49        75        60        39        65        79        63        66        80
 -1         5    4    0EL   
 -2        37       157       178       172         5        22        52        31       156       176
 -2       177       173        36        59        81        74        21        50        51        32
 -1         6    4    0EL   
 -2       157        34       162       178        22         6        25        52       158       161
 -2       179       176        59        35        64        81        23        24        53        50
 -1         7    4    0EL   
 -2       172       178       167        43        31        52        28         8       177       180
 -2       168       171        74        81        69        44        51        54        29        30
 -1         8    4    0EL   
 -2       178       162        40       167        52        25         7        28       179       163
 -2       166       180        81        64        41        69        53        26        27        54
 -3
    1PSTEP                         1           1           1          
  100CL  101 1.000000000          98                     0    1           1
 -4  STRESS      6    1
 -5  SXX         1    4    1    1
 -5  SYY         1    4    2    2
 -5  SZZ         1    4    3    3
 -5  SXY         1    4    1    2
 -5  SYZ         1    4    2    3
 -5  SZX         1    4    3    1
 -1         1 3.62455E+00-9.05128E-01 1.56837E+01 3.51477E+00 2.26811E+01 2.47320E+01
 -1         2 1.85521E+00-2.67447E+00 1.60451E+02 8.84565E+00 4.99657E+01-5.20166E+01
 -1         3 6.19878E+00 3.49345E+00 3.04237E+01 8.21132E+00-1.35860E+01-2.28593E+01
 -1         4 4.42944E+00 1.72411E+00 1.75191E+02 4.14910E+00-4.08706E+01 5.01440E+01
 -1         5-3.65105E+00-8.18073E+00 7.99578E+01-5.15295E+00-3.65487E+01-3.85996E+01
 -1         6-1.74136E+00-6.27104E+00 8.39513E+01 4.41954E+00-3.51453E+01 3.71962E+01
 -1         7-1.07683E+00-3.78216E+00 9.46979E+01-4.56400E-01 2.74536E+01 3.67269E+01
 -1         8 8.32867E-01-1.87246E+00 9.86913E+01-2.77010E-01 2.60502E+01-3.53236E+01
 -1         9-5.42137E+00 6.70173E+00 3.03678E+00-1.20252E+00 5.28454E+00-2.05159E+01
 -1        10-2.30822E+01 3.31813E+00-4.69072E+01 5.21232E+00-2.10878E+01-7.67713E+00
 -1        11-1.49209E+01-5.17340E+00 3.81236E+01 1.25950E+01 9.95104E+00-8.03527E-01
 -1        12-4.52990E+00-1.05664E+01 4.16102E+01 1.23008E+01 3.72551E+00-1.32792E+01
 -1        13-2.49871E+00-7.64422E+00-5.46740E+01 6.97203E+00 7.23755E+00 1.97908E+01
 -1        14 6.05818E+00 3.33170E+00-8.46596E-01 3.19975E+00 2.17019E+01-4.36797E+00
 -1        15 2.65304E+00 6.70173E+00 2.64001E+00 3.49403E+00-5.28454E+00 2.19257E+01
 -1        16-9.50759E+00-1.08045E+00-6.24407E+01 5.21232E+00 1.19927E+01 7.67713E+00
 -1        17-6.84652E+00-5.17340E+00 3.77269E+01 7.89850E+00-9.95104E+00-6.06244E-01
 -1        18-5.81696E+00-6.16785E+00 3.42402E+01 8.19278E+00 3.82477E-01 9.03447E+00
 -1        19-2.49871E+00-7.64422E+00-5.46740E+01 3.45260E+00-8.11670E+00-1.97908E+01
 -1        20 7.34524E+00-1.06687E+00 6.52334E+00-9.08239E-01-1.75939E+01 8.61274E+00
 -1        21-1.10070E+01-9.69060E-01 1.97490E+01-6.20664E+00-8.84876E+00 1.00438E+01
 -1        22-1.80425E+01 5.69755E+00-4.23225E+01-4.68819E-01 1.90831E+01 1.24146E-01
 -1        23-9.73171E+00-5.59272E-01 1.98831E+01 5.37112E+00-7.91512E+00-1.06214E+01
 -1        24 8.42297E-02-5.37721E+00 2.33696E+01 5.07683E+00 7.69939E+00 1.12433E+01
 -1        25-1.19291E-01-2.60452E+00-5.00893E+01 1.29089E+00 3.15430E-01-1.77861E+01
 -1        26-1.61261E+00-2.25391E+00 1.58656E+01-1.80437E+00-1.12298E+01 7.93220E+00
 -1        27-2.93258E+00-9.69060E-01 1.93522E+01-1.51009E+00 8.84876E+00-1.14536E+01
 -1        28-4.46790E+00 1.29898E+00-5.78560E+01-4.68819E-01-9.98800E+00-1.24146E-01
 -1        29-1.65730E+00-5.59272E-01 1.94863E+01 6.74567E-01 7.91512E+00 1.20311E+01
 -1        30-1.20283E+00-9.78632E-01 1.59997E+01 9.68848E-01-1.18074E+01-6.99855E+00
 -1        31-1.19291E-01-2.60452E+00-5.00893E+01-2.22853E+00 5.63722E-01 1.77861E+01
 -1        32-3.25558E-01-6.65249E+00 2.32356E+01-5.91236E+00 7.12184E+00-1.21770E+01
 -1        33 1.83073E+00 4.24565E+00 9.38255E+01 3.33019E+00 2.32680E+01-2.08977E+01
 -1        34 1.25191E+00 1.06114E+01 3.04139E+01-4.77288E+00 6.73648E+00-6.73648E+00
 -1        35-5.21891E-01 1.89303E+00 5.87897E+01-1.47047E+00-9.12127E+00 6.75102E+00
 -1        36-5.91672E-01 1.82325E+00 5.31363E+01 2.16151E+00-9.98768E+00-7.61743E+00
 -1        37-8.76858E+00 5.90941E-01-6.75326E+00 4.72543E+00-1.46882E-01-1.46882E-01
 -1        38-8.19016E+00-5.77524E+00-1.20688E+01 1.74483E+00 2.90699E+00 5.36743E-01
 -1        39-3.35257E+00-5.76749E+00 2.57141E+01 1.73709E+00 6.18813E+00 6.96363E+00
 -1        40-1.66763E+00-3.79214E+00 5.40725E+01 1.33853E-02 1.46882E-01 1.46882E-01
 -1        41 4.24592E+00 1.83100E+00 9.09192E+01 2.15376E+00 8.92554E-01 1.17052E-01
 -1        42 6.66831E+00 4.25339E+00 1.31608E+02 3.33793E+00-1.41728E+01 1.33973E+01
 -1        43 8.35286E+00 6.22834E+00 9.12396E+01-6.08367E-02-6.73648E+00 6.73648E+00
 -1        44 4.31570E+00 1.90078E+00 9.65726E+01-1.46272E+00 2.61438E-02 7.49358E-01
 -1        45-1.24588E+01 7.34499E+00-1.62655E+01 1.75738E+01-1.82989E+00 1.28464E+00
 -1        46 4.27126E-01 7.64166E-01-1.23821E+01 1.58141E+01 1.28464E+00 4.20861E+00
 -1        47 3.35297E+00 9.17255E+00 2.99097E+01 2.99353E+01 4.39576E-01 9.23706E-14
 -1        48 4.27126E-01 7.64166E-01-1.23821E+01 1.93335E+01-1.28464E+00-4.20861E+00
 -1        49-4.83145E-01 2.94641E+00-8.49876E+00 1.75738E+01-2.27809E+00-1.28464E+00
 -1        50-1.39871E+01 4.48652E+00-1.55013E+01-9.00162E-01-1.74816E-01 2.31258E-02
 -1        51-2.43134E+00-7.64166E-01-1.16180E+01-2.65987E+00 2.31258E-02-6.21332E+00
 -1        52-4.74340E+00 1.07619E+00 2.68533E+01-1.33150E+00-4.39576E-01 6.17284E-13
 -1        53-2.43134E+00-7.64166E-01-1.16180E+01 8.59551E-01-2.31258E-02 6.21332E+00
 -1        54-2.01148E+00 8.79396E-02-7.73460E+00-9.00162E-01 4.28280E+00-2.31258E-02
 -1        55 4.14849E+00 6.68156E-04-1.14731E-01-2.68454E+00-1.30875E+01-4.87696E+00
 -1        56 2.46758E+00-2.89659E+00 1.93955E+01-1.30684E+00-1.25307E+01 2.64300E+01
 -1        57 3.13792E+01-3.31679E+00 4.66777E+01-1.05814E+01-5.08711E+00-2.07680E+00
 -1        58 1.98123E+01-1.59995E-01 2.09714E+01-1.03798E+01-2.70490E+00-3.52255E+01
 -1        59 2.27221E+00-1.09401E+00-1.67277E+01-1.98484E-01 9.55447E+00-2.69029E-01
 -1        60-3.20505E-03 1.74519E+00-2.62413E+01-2.68067E+00 4.43739E+00 4.55540E+00
 -1        61 1.61532E+00 1.54655E+01 7.43578E+00-1.00777E+01 2.52846E+01 2.19058E+00
 -1        62 2.49230E+00 1.11346E+01 2.19134E+00-1.23334E+01 1.63722E+00-1.06800E+01
 -1        63-4.67186E+00-6.26225E+00 1.88576E+01-5.71686E+00-1.23812E+01 1.06334E+01
 -1        64-1.09788E+00-1.31091E-01-4.28543E+01-1.94611E-01 7.08604E-01-1.02240E+00
 -1        65-6.58106E-01-7.07826E-03-3.78976E+01-2.68454E+00 3.99235E+00 4.87696E+00
 -1        66-5.57584E+00-2.89659E+00 1.97923E+01-6.01888E+00 1.25307E+01-1.37648E+01
 -1        67 8.19138E+00 1.06629E+00-1.33545E+01-1.05814E+01-4.00801E+00 2.07680E+00
 -1        68 1.17689E+01-1.59995E-01 2.13681E+01-5.66771E+00 2.70490E+00 2.25603E+01
 -1        69-2.53439E+00-1.10176E+00-5.45106E+01-1.98484E-01-4.59349E-01 2.69029E-01
 -1        70-3.20505E-03 1.74519E+00-2.62413E+01-2.68842E+00-5.31654E+00-4.55540E+00
 -1        71-1.93526E+00 1.10824E+01 2.04335E+01-5.96974E+00-2.11766E+01-8.07579E-01
 -1        72 2.49230E+00 1.11346E+01 2.19134E+00-8.82944E+00-2.51637E+00 1.06800E+01
 -1        73-1.12128E+00-1.87917E+00 5.85989E+00-1.60887E+00 1.64892E+01-1.20164E+01
 -1        74-1.09788E+00-1.31091E-01-4.28543E+01-2.02357E-01 1.70547E-01 1.02240E+00
 -1        75-2.50932E+00-2.50932E+00 1.47706E+00 2.53751E+00 4.39576E-01 1.03917E-13
 -1        76 9.29133E+00-9.84976E+00 1.55023E+00-1.77209E+01-1.21228E+01-1.95667E+00
 -1        77-2.93965E+00-1.52829E+00-1.23821E+01-1.59689E+01-1.95667E+00-1.33194E+01
 -1        78-8.37161E+00-1.41912E+01-2.69556E+01-2.48603E+01 4.39576E-01 1.15463E-13
 -1        79-2.93965E+00-1.52829E+00-1.23821E+01-1.94728E+01 1.95667E+00 1.33194E+01
 -1        80 2.12234E+00-5.46668E+00-1.18442E+01-1.77209E+01 8.01482E+00 1.95667E+00
 -1        81 8.95218E-01 8.95218E-01 1.96183E+01 3.45518E-01-4.39576E-01 1.91847E-13
 -1       156 1.28009E+01 2.20919E+00 1.86421E+01 6.35832E+00 8.52886E+00-2.46516E+01
 -1       157 2.25869E+01-7.88558E+00 8.86710E+00 7.18508E-02 2.58243E-02-6.62203E-01
 -1       158 1.13687E+01 8.47401E-01 2.01964E+01-5.22873E+00 8.23503E+00 2.38247E+01
 -1       161 2.62272E+00 7.02194E+00 6.66082E+00-4.92670E+00-1.38839E+01-7.72071E+00
 -1       162-2.07648E+00 2.34234E+00-3.56193E+01-1.68012E+00 1.10178E+00 1.57413E+01
 -1       163 4.33921E-01 4.07102E+00 1.81042E+01 1.94830E+00 1.06028E+01-6.63154E+00
 -1       166 4.75743E+00 2.20919E+00 1.90389E+01 1.64628E+00-8.52886E+00 1.19864E+01
 -1       167-6.00885E-01-3.50249E+00-5.11651E+01 7.18508E-02 9.06930E+00 6.62203E-01
 -1       168 3.32527E+00 8.47401E-01 2.05932E+01-5.16686E-01-8.23503E+00-1.11595E+01
 -1       171-9.27864E-01 2.63886E+00 1.96585E+01-8.18714E-01 9.77587E+00 6.33771E+00
 -1       172-2.07648E+00 2.34234E+00-3.56193E+01 1.82382E+00-2.22627E-01-1.57413E+01
 -1       173 3.98450E+00 8.45410E+00 5.10654E+00 6.05629E+00-1.47108E+01 8.01454E+00
 -1       176 1.23479E+01-4.68144E+00 2.31438E+00 1.04720E+00 7.06152E+00-2.48081E-02
 -1       177 2.22868E+00 1.52829E+00-1.16180E+01 2.79916E+00-2.48081E-02 8.25812E+00
 -1       178 6.53383E+00 7.14246E-01 1.23833E+01 2.02254E+00-4.39576E-01-2.33591E-13
 -1       179 2.22868E+00 1.52829E+00-1.16180E+01-7.04771E-01 2.48081E-02-8.25812E+00
 -1       180 5.17893E+00-2.98352E-01-1.10801E+01 1.04720E+00-2.95353E+00 2.48081E-02
 -3
 9999
